18
NMM ground state equatorial B3LYP/6-311++g**
  C          1.1738643646       -0.2150038459       -1.1426381082
  C          1.2005823301        0.1916224380        0.3269223126
  H          2.0826129217       -0.2420205126        0.8098032553
  N         -0.0000000094       -0.2957761321        1.0045123511
  H          1.2847492820        1.2935180468        0.3970877198
  C         -1.2005823170        0.1916224591        0.3269223282
  C          0.0000000090        0.0222585972        2.4240707563
  H         -0.0000000090        1.1108999408        2.6209289087
  H          0.8850168643       -0.4095026479        2.8990682950
  H         -0.8850168234       -0.4095026717        2.8990683099
  C         -1.1738643499       -0.2150038773       -1.1426380616
  H         -1.2219012192       -1.3110365455       -1.2237002046
  O         -0.0000000389        0.2643605276       -1.7911323609
  H         -2.0209567441        0.2165532143       -1.6793050474
  H          1.2219012054       -1.3110365132       -1.2237002277
  H          2.0209569312        0.2165531532       -1.6793049808
  H         -1.2847492764        1.2935180740        0.3970877448
  H         -2.0826128243       -0.2420205493        0.8098033280
