18
NMM axial structure B3LYP/6-311++g**
  C          1.2015589279        0.5840153257        0.2811345407
  C         -1.2015589195        0.5840153317        0.2811345437
  C         -1.1816935899       -0.3240126733       -0.9520864817
  C          1.1816935879       -0.3240126734       -0.9520864906
  H         -2.0889480917        0.3877554757        0.8900544464
  H          1.2596615569        1.6266619563       -0.0545181349
  H          2.0889481235        0.3877554712        0.8900544215
  H         -1.2343634527       -1.3842094167       -0.6553682603
  H         -2.0235995937       -0.1115007092       -1.6156473657
  H          1.2343634475       -1.3842094170       -0.6553682693
  H          2.0235996101       -0.1115007140       -1.6156473623
  H         -1.2596615502        1.6266619637       -0.0545181317
  O         -0.0000000072       -0.1035754070       -1.7227748528
  N          0.0000000001        0.4377128164        1.1084148854
  C         -0.0000000008       -0.7190898140        2.0148443477
  H          0.8786524110       -1.3558958518        1.8668788138
  H          0.0000000029       -0.3917813842        3.0614835621
  H         -0.8786524165       -1.3558958459        1.8668788176
