18
NMM planar B3LYP/6-311++g**
  C          1.2163801307        0.5167037779        0.2912667103
  C         -1.2163753637        0.5167058960        0.2912741701
  C         -1.1727079223       -0.3337545540       -1.0392417158
  C          1.1727031934       -0.3337567396       -1.0392496931
  H         -2.0876016456        0.2566334623        0.8910714598
  H          1.2519019332        1.5709639257        0.0043719283
  H          2.0876102877        0.2566314356        0.8910580717
  H         -1.2224295592       -1.4006809919       -0.7917390203
  H         -2.0220220685       -0.0537276347       -1.6615846058
  H          1.2224251112       -1.4006831615       -0.7917473689
  H          2.0220138501       -0.0537302234       -1.6615975578
  H         -1.2518985138        1.5709664184        0.0043812226
  O         -0.0000043134       -0.0156151335       -1.7376206208
  N          0.0000046741        0.2479413929        1.0116133798
  C          0.0000011364       -0.5205604590        2.2453392760
  H          0.8972426653       -1.1377745357        2.3069304694
  H         -0.0000816505        0.1746810102        3.0961369577
  H         -0.8971708905       -1.1378858455        2.3068549854
